Traveling Salesman Problem/TSP_generados/Aleatorio1620391186_15.tsp
NAME: Aleatorio1620391186_15.tsp
COMMENT: Randomly generated scenario
TYPE: TSP
DIMENSION: 15
EDGE_WEIGHT_TYPE: ATT
NODE_COORD_SECTION
1 34.11 7.35
2 19.91 9.13
3 42.72 38.3
4 22.82 17.93
5 4.13 3.44
6 22.83 36.48
7 41.72 8.3
8 40.07 0.04
9 42.77 27.39
10 28.82 37.17
11 8.73 43.72
12 26.42 42.64
13 20.85 10.81
14 8.24 10.68
15 1.4 36.81
