Traveling Salesman Problem/TSP_generados/Aleatorio1620391186_15.opt.tour
NAME: Aleatorio1620391186_15.opt.tour
COMMENT: Optimal solution for Aleatorio1620391186_15 (177.75197568620737)
TYPE: TOUR
DIMENSION: 15
TOUR_SECTION
1 4 13 2 5 14 15 11 6 12 10 3 9 7 8
-1
EOF
